20
0 1 0.11 0.11
0 2 0.26 0.26
0 3 0.8 0.41
0 4 0.66 0.43
0 5 0.29 0.25
0 6 0.6 0.21
0 7 0.72 0.44
0 8 0.95 0.21
0 9 0.86 0.31
0 10 0.51 0.14
0 11 0.26 0.26
0 12 0.28 0.28
0 13 0.25 0.25
0 14 0.4 0.4
0 15 0.56 0.23
0 16 0.27 0.27
0 17 0.28 0.28
0 18 0.22 0.22
0 19 0.22 0.22
1 2 0.44 0.37
1 3 0.39 0.39
1 4 0.64 0.32
1 5 0.14 0.14
1 6 0.2 0.2
1 7 0.47 0.36
1 8 0.3 0.3
1 9 0.22 0.22
1 10 0.25 0.25
1 11 0.64 0.18
1 12 0.29 0.29
1 13 0.78 0.36
1 14 0.4 0.4
1 15 0.12 0.12
1 16 0.48 0.26
1 17 0.7 0.28
1 18 0.68 0.22
1 19 0.21 0.21
2 3 0.41 0.41
2 4 0.62 0.4
2 5 0.24 0.24
2 6 0.83 0.43
2 7 0.42 0.42
2 8 0.19 0.19
2 9 0.56 0.33
2 10 0.52 0.12
2 11 0.36 0.36
2 12 0.31 0.31
2 13 0.7 0.51
2 14 0.5 0.36
2 15 0.44 0.38
2 16 0.36 0.36
2 17 0.26 0.26
2 18 0.54 0.32
2 19 0.31 0.31
3 4 0.4 0.4
3 5 0.59 0.36
3 6 0.22 0.22
3 7 0.92 0.43
3 8 0.54 0.22
3 9 0.34 0.34
3 10 0.29 0.29
3 11 0.42 0.21
3 12 0.34 0.34
3 13 0.35 0.35
3 14 0.46 0.2
3 15 0.69 0.27
3 16 0.14 0.14
3 17 0.6 0.31
3 18 0.47 0.25
3 19 0.19 0.19
4 5 0.46 0.46
4 6 0.38 0.38
4 7 0.82 0.49
4 8 0.32 0.32
4 9 0.74 0.35
4 10 0.35 0.35
4 11 0.76 0.19
4 12 0.3 0.3
4 13 0.44 0.44
4 14 0.41 0.41
4 15 0.25 0.25
4 16 0.5 0.3
4 17 0.26 0.26
4 18 0.88 0.23
4 19 0.25 0.25
5 6 0.2 0.2
5 7 0.43 0.43
5 8 0.2 0.2
5 9 0.18 0.18
5 10 0.22 0.13
5 11 0.54 0.28
5 12 0.32 0.32
5 13 0.8 0.29
5 14 0.6 0.37
5 15 0.58 0.26
5 16 0.22 0.22
5 17 0.27 0.27
5 18 0.32 0.32
5 19 0.6 0.27
6 7 0.74 0.48
6 8 0.61 0.26
6 9 0.64 0.35
6 10 0.31 0.31
6 11 0.52 0.19
6 12 0.72 0.27
6 13 0.4 0.4
6 14 0.5 0.34
6 15 0.25 0.25
6 16 0.19 0.19
6 17 0.43 0.28
6 18 0.23 0.23
6 19 0.14 0.14
7 8 0.72 0.37
7 9 0.52 0.34
7 10 0.48 0.3
7 11 0.3 0.3
7 12 0.57 0.41
7 13 0.52 0.24
7 14 0.61 0.38
7 15 0.61 0.24
7 16 0.88 0.29
7 17 0.59 0.4
7 18 0.34 0.34
7 19 0.34 0.34
8 9 0.84 0.28
8 10 0.62 0.07
8 11 0.18 0.18
8 12 0.76 0.12
8 13 0.82 0.42
8 14 0.32 0.32
8 15 0.24 0.24
8 16 0.58 0.17
8 17 0.21 0.21
8 18 0.22 0.22
8 19 0.12 0.12
9 10 0.54 0.21
9 11 0.63 0.16
9 12 0.64 0.27
9 13 0.34 0.26
9 14 0.32 0.32
9 15 0.87 0.1
9 16 0.27 0.27
9 17 0.2 0.2
9 18 0.9 0.14
9 19 0.52 0.22
10 11 0.33 0.24
10 12 0.19 0.19
10 13 0.62 0.39
10 14 0.38 0.38
10 15 0.59 0.3
10 16 0.24 0.24
10 17 0.14 0.14
10 18 0.58 0.2
10 19 0.62 0.19
11 12 0.19 0.19
11 13 0.29 0.25
11 14 0.22 0.22
11 15 0.82 0.06
11 16 0.11 0.11
11 17 0.54 0.1
11 18 0.6 0.04
11 19 0.06 0.06
12 13 0.44 0.44
12 14 0.62 0.33
12 15 0.81 0.17
12 16 0.29 0.29
12 17 0.21 0.21
12 18 0.32 0.15
12 19 0.86 0.24
13 14 0.71 0.15
13 15 0.28 0.28
13 16 0.71 0.3
13 17 0.35 0.35
13 18 0.29 0.29
13 19 0.3 0.3
14 15 0.28 0.28
14 16 0.15 0.15
14 17 0.24 0.24
14 18 0.47 0.18
14 19 0.2 0.2
15 16 0.54 0.17
15 17 0.38 0.16
15 18 0.68 0.1
15 19 0.12 0.12
16 17 0.45 0.21
16 18 0.15 0.15
16 19 0.42 0.05
17 18 0.06 0.06
17 19 0.5 0.16
18 19 0.1 0.1
